NAME : ClusterId_1032 
COMMENT : (Gillet and Johnson) 
TYPE : CVRP 
DIMENSION : 5 
EDGE_WEIGHT_TYPE : EUC_2D 
CAPACITY : 500 
NODE_COORD_SECTION 
1032 8872 155 
542 8799 15 
431 8615 139 
830 8484 299 
59 8351 355 
DEMAND_SECTION 
1032 501
542 51
431 36
830 44
59 43
DEPOT_SECTION 
1032
 -1
EOF